p edge 165 4356 132
e 1 2
e 1 3
e 1 4
e 1 5
e 1 6
e 1 7
e 1 8
e 1 9
e 1 10
e 1 11
e 1 12
e 1 13
e 1 14
e 1 15
e 1 16
e 1 17
e 1 18
e 1 19
e 1 20
e 1 21
e 1 22
e 1 23
e 1 24
e 1 25
e 1 26
e 1 27
e 1 28
e 1 29
e 1 30
e 1 31
e 1 32
e 1 33
e 1 34
e 1 35
e 1 36
e 1 37
e 1 38
e 1 39
e 1 40
e 1 41
e 1 42
e 1 43
e 1 44
e 1 45
e 1 46
e 1 47
e 1 48
e 1 49
e 1 50
e 1 51
e 1 52
e 1 53
e 1 54
e 1 56
e 1 57
e 1 58
e 1 59
e 1 63
e 1 64
e 1 65
e 1 67
e 1 68
e 1 69
e 1 70
e 1 73
e 1 74
e 1 75
e 1 77
e 1 78
e 1 80
e 1 81
e 1 83
e 1 84
e 1 85
e 1 86
e 1 90
e 1 93
e 1 94
e 1 95
e 1 96
e 1 97
e 1 100
e 1 101
e 1 103
e 1 104
e 1 105
e 1 106
e 1 108
e 1 110
e 1 112
e 1 113
e 1 115
e 1 116
e 1 117
e 1 118
e 1 120
e 1 125
e 1 126
e 1 130
e 1 132
e 1 136
e 1 144
e 1 145
e 1 146
e 1 148
e 1 150
e 1 151
e 1 152
e 1 154
e 1 156
e 1 162
e 2 35
e 2 36
e 2 37
e 2 38
e 2 40
e 2 42
e 2 44
e 2 45
e 2 46
e 2 48
e 2 49
e 2 50
e 2 52
e 2 55
e 2 58
e 2 60
e 2 64
e 2 70
e 2 76
e 2 80
e 2 85
e 2 91
e 2 94
e 2 110
e 2 115
e 2 121
e 2 124
e 2 126
e 2 139
e 2 144
e 2 148
e 2 152
e 3 35
e 3 36
e 3 37
e 3 38
e 3 39
e 3 41
e 3 42
e 3 43
e 3 45
e 3 46
e 3 47
e 3 48
e 3 49
e 3 50
e 3 51
e 3 52
e 3 53
e 3 59
e 3 61
e 3 67
e 3 69
e 3 70
e 3 71
e 3 73
e 3 77
e 3 81
e 3 82
e 3 90
e 3 91
e 3 94
e 3 101
e 3 102
e 3 106
e 3 109
e 3 110
e 3 113
e 3 114
e 3 119
e 3 122
e 3 125
e 3 134
e 3 137
e 3 138
e 3 139
e 3 140
e 3 143
e 3 144
e 3 155
e 3 165
e 4 35
e 4 36
e 4 37
e 4 38
e 4 39
e 4 40
e 4 41
e 4 43
e 4 44
e 4 46
e 4 48
e 4 49
e 4 50
e 4 51
e 4 54
e 4 55
e 4 56
e 4 57
e 4 61
e 4 62
e 4 63
e 4 65
e 4 71
e 4 73
e 4 74
e 4 77
e 4 78
e 4 79
e 4 83
e 4 84
e 4 85
e 4 87
e 4 88
e 4 97
e 4 99
e 4 105
e 4 108
e 4 115
e 4 116
e 4 119
e 4 122
e 4 123
e 4 125
e 4 126
e 4 127
e 4 135
e 4 137
e 4 153
e 4 156
e 4 160
e 4 164
e 5 35
e 5 36
e 5 37
e 5 38
e 5 39
e 5 41
e 5 42
e 5 44
e 5 45
e 5 46
e 5 47
e 5 48
e 5 49
e 5 50
e 5 51
e 5 52
e 5 53
e 5 54
e 5 55
e 5 57
e 5 58
e 5 59
e 5 60
e 5 61
e 5 62
e 5 63
e 5 64
e 5 65
e 5 67
e 5 68
e 5 72
e 5 73
e 5 74
e 5 75
e 5 77
e 5 79
e 5 80
e 5 82
e 5 83
e 5 84
e 5 86
e 5 87
e 5 89
e 5 90
e 5 91
e 5 92
e 5 93
e 5 94
e 5 95
e 5 96
e 5 99
e 5 100
e 5 101
e 5 103
e 5 107
e 5 108
e 5 110
e 5 112
e 5 113
e 5 114
e 5 118
e 5 119
e 5 120
e 5 121
e 5 129
e 5 134
e 5 135
e 5 136
e 5 137
e 5 145
e 5 153
e 5 154
e 5 155
e 5 157
e 5 163
e 5 164
e 5 165
e 6 35
e 6 36
e 6 37
e 6 39
e 6 40
e 6 43
e 6 44
e 6 45
e 6 49
e 6 51
e 6 54
e 6 55
e 6 56
e 6 59
e 6 63
e 6 64
e 6 65
e 6 68
e 6 74
e 6 80
e 6 83
e 6 85
e 6 90
e 6 94
e 6 97
e 6 98
e 6 99
e 6 100
e 6 101
e 6 107
e 6 110
e 6 114
e 6 116
e 6 127
e 6 151
e 6 155
e 6 157
e 6 161
e 7 35
e 7 36
e 7 37
e 7 38
e 7 39
e 7 41
e 7 42
e 7 44
e 7 46
e 7 47
e 7 48
e 7 49
e 7 50
e 7 52
e 7 54
e 7 55
e 7 57
e 7 58
e 7 60
e 7 62
e 7 63
e 7 65
e 7 67
e 7 68
e 7 70
e 7 71
e 7 74
e 7 76
e 7 82
e 7 83
e 7 85
e 7 87
e 7 92
e 7 94
e 7 95
e 7 96
e 7 100
e 7 107
e 7 108
e 7 109
e 7 112
e 7 113
e 7 115
e 7 119
e 7 120
e 7 121
e 7 134
e 7 139
e 7 140
e 7 144
e 7 145
e 7 147
e 8 35
e 8 36
e 8 37
e 8 38
e 8 40
e 8 41
e 8 42
e 8 43
e 8 47
e 8 49
e 8 50
e 8 55
e 8 58
e 8 62
e 8 64
e 8 67
e 8 76
e 8 85
e 8 86
e 8 90
e 8 91
e 8 102
e 8 116
e 8 121
e 8 133
e 8 137
e 8 144
e 8 147
e 9 35
e 9 36
e 9 37
e 9 38
e 9 39
e 9 41
e 9 42
e 9 43
e 9 44
e 9 45
e 9 47
e 9 48
e 9 50
e 9 51
e 9 53
e 9 56
e 9 59
e 9 72
e 9 74
e 9 75
e 9 80
e 9 82
e 9 83
e 9 96
e 9 97
e 9 98
e 9 101
e 9 102
e 9 111
e 9 124
e 9 126
e 9 127
e 9 133
e 9 154
e 9 156
e 9 158
e 9 161
e 10 35
e 10 36
e 10 38
e 10 39
e 10 40
e 10 41
e 10 42
e 10 43
e 10 44
e 10 45
e 10 48
e 10 51
e 10 52
e 10 53
e 10 55
e 10 56
e 10 58
e 10 59
e 10 60
e 10 61
e 10 62
e 10 63
e 10 64
e 10 65
e 10 71
e 10 72
e 10 74
e 10 75
e 10 76
e 10 77
e 10 83
e 10 91
e 10 97
e 10 99
e 10 104
e 10 105
e 10 109
e 10 114
e 10 116
e 10 119
e 10 122
e 10 132
e 10 135
e 10 138
e 10 140
e 10 145
e 10 146
e 10 147
e 10 148
e 10 149
e 10 150
e 10 157
e 10 163
e 11 35
e 11 36
e 11 37
e 11 38
e 11 39
e 11 40
e 11 41
e 11 42
e 11 43
e 11 44
e 11 45
e 11 46
e 11 47
e 11 48
e 11 51
e 11 52
e 11 55
e 11 58
e 11 59
e 11 61
e 11 64
e 11 66
e 11 68
e 11 69
e 11 71
e 11 76
e 11 82
e 11 86
e 11 89
e 11 90
e 11 93
e 11 94
e 11 97
e 11 98
e 11 99
e 11 100
e 11 102
e 11 105
e 11 107
e 11 111
e 11 112
e 11 113
e 11 117
e 11 118
e 11 129
e 11 136
e 11 141
e 11 144
e 11 154
e 11 155
e 11 157
e 12 35
e 12 36
e 12 37
e 12 38
e 12 39
e 12 40
e 12 41
e 12 42
e 12 43
e 12 44
e 12 45
e 12 50
e 12 52
e 12 56
e 12 62
e 12 64
e 12 65
e 12 68
e 12 69
e 12 70
e 12 71
e 12 72
e 12 73
e 12 78
e 12 83
e 12 85
e 12 87
e 12 88
e 12 100
e 12 107
e 12 114
e 12 116
e 12 118
e 12 122
e 12 145
e 12 155
e 13 35
e 13 36
e 13 37
e 13 38
e 13 39
e 13 40
e 13 41
e 13 42
e 13 43
e 13 44
e 13 46
e 13 47
e 13 48
e 13 49
e 13 50
e 13 55
e 13 63
e 13 66
e 13 69
e 13 76
e 13 77
e 13 85
e 13 86
e 13 87
e 13 88
e 13 98
e 13 101
e 13 103
e 13 120
e 13 124
e 13 126
e 13 128
e 13 133
e 13 136
e 13 137
e 13 159
e 13 162
e 13 164
e 14 35
e 14 36
e 14 37
e 14 39
e 14 40
e 14 41
e 14 43
e 14 44
e 14 45
e 14 46
e 14 47
e 14 48
e 14 49
e 14 51
e 14 52
e 14 54
e 14 57
e 14 58
e 14 59
e 14 61
e 14 64
e 14 67
e 14 69
e 14 70
e 14 71
e 14 75
e 14 78
e 14 82
e 14 83
e 14 86
e 14 91
e 14 99
e 14 111
e 14 114
e 14 121
e 14 123
e 14 128
e 14 129
e 14 134
e 14 142
e 14 148
e 14 149
e 14 150
e 14 153
e 14 155
e 15 35
e 15 37
e 15 38
e 15 39
e 15 40
e 15 42
e 15 43
e 15 44
e 15 46
e 15 47
e 15 51
e 15 55
e 15 57
e 15 58
e 15 62
e 15 63
e 15 66
e 15 68
e 15 80
e 15 81
e 15 86
e 15 88
e 15 105
e 15 108
e 15 111
e 15 116
e 15 120
e 15 124
e 15 133
e 15 141
e 15 146
e 15 147
e 15 148
e 15 152
e 15 164
e 15 165
e 16 35
e 16 36
e 16 38
e 16 39
e 16 40
e 16 41
e 16 42
e 16 43
e 16 46
e 16 51
e 16 52
e 16 53
e 16 54
e 16 57
e 16 58
e 16 60
e 16 71
e 16 72
e 16 76
e 16 88
e 16 89
e 16 91
e 16 95
e 16 102
e 16 107
e 16 115
e 16 123
e 16 125
e 16 128
e 16 136
e 16 143
e 16 145
e 16 163
e 16 165
e 17 35
e 17 36
e 17 37
e 17 38
e 17 40
e 17 41
e 17 43
e 17 44
e 17 46
e 17 47
e 17 48
e 17 49
e 17 50
e 17 54
e 17 57
e 17 58
e 17 59
e 17 62
e 17 63
e 17 66
e 17 68
e 17 72
e 17 73
e 17 75
e 17 81
e 17 83
e 17 85
e 17 91
e 17 97
e 17 100
e 17 102
e 17 104
e 17 108
e 17 111
e 17 116
e 17 126
e 17 152
e 17 155
e 17 156
e 17 158
e 17 161
e 17 163
e 18 35
e 18 36
e 18 37
e 18 38
e 18 39
e 18 40
e 18 41
e 18 43
e 18 44
e 18 45
e 18 46
e 18 47
e 18 49
e 18 50
e 18 51
e 18 52
e 18 54
e 18 57
e 18 58
e 18 60
e 18 61
e 18 64
e 18 65
e 18 66
e 18 67
e 18 71
e 18 76
e 18 77
e 18 79
e 18 81
e 18 86
e 18 89
e 18 95
e 18 101
e 18 110
e 18 115
e 18 118
e 18 119
e 18 120
e 18 125
e 18 128
e 18 131
e 18 135
e 18 137
e 18 144
e 18 153
e 18 154
e 18 156
e 18 158
e 18 160
e 19 35
e 19 36
e 19 37
e 19 38
e 19 39
e 19 40
e 19 41
e 19 42
e 19 43
e 19 44
e 19 45
e 19 48
e 19 49
e 19 50
e 19 51
e 19 52
e 19 55
e 19 56
e 19 57
e 19 58
e 19 59
e 19 60
e 19 61
e 19 65
e 19 66
e 19 67
e 19 69
e 19 77
e 19 84
e 19 94
e 19 95
e 19 96
e 19 99
e 19 101
e 19 102
e 19 105
e 19 109
e 19 110
e 19 114
e 19 120
e 19 122
e 19 126
e 19 130
e 19 134
e 19 136
e 19 139
e 19 143
e 19 144
e 19 160
e 19 164
e 20 35
e 20 36
e 20 37
e 20 39
e 20 40
e 20 42
e 20 44
e 20 46
e 20 47
e 20 48
e 20 51
e 20 55
e 20 59
e 20 61
e 20 69
e 20 70
e 20 71
e 20 72
e 20 73
e 20 74
e 20 82
e 20 88
e 20 90
e 20 96
e 20 99
e 20 103
e 20 108
e 20 117
e 20 131
e 20 138
e 20 147
e 20 156
e 20 158
e 20 159
e 21 35
e 21 36
e 21 37
e 21 38
e 21 39
e 21 40
e 21 41
e 21 42
e 21 43
e 21 45
e 21 46
e 21 47
e 21 48
e 21 49
e 21 50
e 21 52
e 21 53
e 21 56
e 21 57
e 21 60
e 21 62
e 21 63
e 21 69
e 21 74
e 21 90
e 21 92
e 21 102
e 21 106
e 21 109
e 21 115
e 21 118
e 21 124
e 21 131
e 21 144
e 21 152
e 21 153
e 21 159
e 21 164
e 22 35
e 22 36
e 22 37
e 22 38
e 22 39
e 22 40
e 22 41
e 22 43
e 22 45
e 22 48
e 22 53
e 22 54
e 22 55
e 22 56
e 22 59
e 22 65
e 22 67
e 22 68
e 22 69
e 22 70
e 22 72
e 22 74
e 22 76
e 22 77
e 22 86
e 22 87
e 22 93
e 22 96
e 22 117
e 22 128
e 22 146
e 22 156
e 23 35
e 23 36
e 23 37
e 23 38
e 23 39
e 23 40
e 23 41
e 23 42
e 23 43
e 23 44
e 23 45
e 23 46
e 23 47
e 23 48
e 23 49
e 23 50
e 23 52
e 23 53
e 23 54
e 23 55
e 23 56
e 23 58
e 23 59
e 23 60
e 23 62
e 23 64
e 23 66
e 23 70
e 23 79
e 23 80
e 23 82
e 23 84
e 23 89
e 23 95
e 23 99
e 23 103
e 23 104
e 23 109
e 23 118
e 23 122
e 23 131
e 23 138
e 23 141
e 23 142
e 23 148
e 23 152
e 23 159
e 23 161
e 23 164
e 23 165
e 24 35
e 24 36
e 24 37
e 24 38
e 24 40
e 24 41
e 24 42
e 24 45
e 24 47
e 24 48
e 24 50
e 24 52
e 24 53
e 24 54
e 24 56
e 24 59
e 24 60
e 24 62
e 24 63
e 24 67
e 24 80
e 24 90
e 24 94
e 24 98
e 24 125
e 24 126
e 24 128
e 24 137
e 24 149
e 24 150
e 24 151
e 24 160
e 25 35
e 25 36
e 25 37
e 25 38
e 25 39
e 25 40
e 25 41
e 25 42
e 25 43
e 25 45
e 25 48
e 25 49
e 25 51
e 25 52
e 25 54
e 25 61
e 25 63
e 25 66
e 25 74
e 25 75
e 25 76
e 25 80
e 25 85
e 25 86
e 25 88
e 25 89
e 25 91
e 25 94
e 25 102
e 25 104
e 25 106
e 25 108
e 25 110
e 25 111
e 25 122
e 25 129
e 25 130
e 25 142
e 25 152
e 25 154
e 25 155
e 25 157
e 26 37
e 26 38
e 26 39
e 26 40
e 26 41
e 26 42
e 26 44
e 26 45
e 26 46
e 26 49
e 26 50
e 26 53
e 26 57
e 26 61
e 26 64
e 26 65
e 26 66
e 26 70
e 26 78
e 26 80
e 26 81
e 26 82
e 26 89
e 26 93
e 26 102
e 26 104
e 26 105
e 26 109
e 26 111
e 26 118
e 26 134
e 26 141
e 26 153
e 26 157
e 27 35
e 27 36
e 27 37
e 27 38
e 27 39
e 27 40
e 27 41
e 27 44
e 27 45
e 27 47
e 27 52
e 27 53
e 27 56
e 27 60
e 27 64
e 27 65
e 27 66
e 27 67
e 27 69
e 27 70
e 27 71
e 27 73
e 27 75
e 27 79
e 27 80
e 27 82
e 27 89
e 27 103
e 27 104
e 27 118
e 27 138
e 27 148
e 27 159
e 27 161
e 27 165
e 28 35
e 28 36
e 28 37
e 28 38
e 28 39
e 28 40
e 28 41
e 28 42
e 28 46
e 28 47
e 28 50
e 28 53
e 28 57
e 28 60
e 28 66
e 28 67
e 28 71
e 28 77
e 28 81
e 28 84
e 28 85
e 28 99
e 28 104
e 28 107
e 28 122
e 28 133
e 29 35
e 29 36
e 29 37
e 29 38
e 29 39
e 29 40
e 29 41
e 29 42
e 29 43
e 29 46
e 29 47
e 29 48
e 29 49
e 29 50
e 29 53
e 29 55
e 29 58
e 29 66
e 29 68
e 29 70
e 29 72
e 29 73
e 29 78
e 29 85
e 29 88
e 29 94
e 29 104
e 29 108
e 29 113
e 29 120
e 29 123
e 29 128
e 29 132
e 29 134
e 29 144
e 29 148
e 29 156
e 29 164
e 30 35
e 30 36
e 30 37
e 30 38
e 30 39
e 30 40
e 30 41
e 30 42
e 30 44
e 30 45
e 30 46
e 30 47
e 30 51
e 30 52
e 30 54
e 30 57
e 30 59
e 30 62
e 30 65
e 30 69
e 30 71
e 30 74
e 30 75
e 30 77
e 30 78
e 30 80
e 30 81
e 30 84
e 30 92
e 30 98
e 30 99
e 30 102
e 30 107
e 30 109
e 30 114
e 30 116
e 30 122
e 30 124
e 30 125
e 30 130
e 30 135
e 30 141
e 30 146
e 30 148
e 30 149
e 30 156
e 30 162
e 30 163
e 30 164
e 30 165
e 31 35
e 31 36
e 31 38
e 31 39
e 31 40
e 31 42
e 31 43
e 31 44
e 31 45
e 31 51
e 31 53
e 31 56
e 31 61
e 31 68
e 31 75
e 31 82
e 31 94
e 31 97
e 31 99
e 31 109
e 31 111
e 31 113
e 31 115
e 31 117
e 31 120
e 31 121
e 31 122
e 31 143
e 32 35
e 32 36
e 32 37
e 32 38
e 32 39
e 32 43
e 32 44
e 32 46
e 32 53
e 32 54
e 32 55
e 32 63
e 32 66
e 32 73
e 32 77
e 32 88
e 32 108
e 32 128
e 32 143
e 32 149
e 32 160
e 33 35
e 33 36
e 33 37
e 33 38
e 33 39
e 33 40
e 33 41
e 33 42
e 33 43
e 33 44
e 33 45
e 33 46
e 33 47
e 33 48
e 33 49
e 33 50
e 33 52
e 33 54
e 33 56
e 33 59
e 33 60
e 33 61
e 33 64
e 33 66
e 33 67
e 33 78
e 33 79
e 33 85
e 33 90
e 33 93
e 33 98
e 33 99
e 33 103
e 33 104
e 33 108
e 33 109
e 33 112
e 33 126
e 33 131
e 33 149
e 33 150
e 34 35
e 34 36
e 34 37
e 34 42
e 34 43
e 34 45
e 34 50
e 34 54
e 34 56
e 34 65
e 34 68
e 34 86
e 34 89
e 34 117
e 34 126
e 34 129
e 34 139
e 34 149
e 35 36
e 35 37
e 35 38
e 35 39
e 35 40
e 35 41
e 35 42
e 35 43
e 35 44
e 35 45
e 35 46
e 35 47
e 35 48
e 35 49
e 35 50
e 35 51
e 35 52
e 35 53
e 35 54
e 35 55
e 35 56
e 35 57
e 35 60
e 35 61
e 35 62
e 35 63
e 35 64
e 35 65
e 35 66
e 35 67
e 35 68
e 35 69
e 35 70
e 35 71
e 35 72
e 35 75
e 35 76
e 35 77
e 35 78
e 35 79
e 35 83
e 35 85
e 35 86
e 35 87
e 35 90
e 35 94
e 35 96
e 35 97
e 35 101
e 35 102
e 35 103
e 35 104
e 35 105
e 35 106
e 35 107
e 35 108
e 35 109
e 35 110
e 35 111
e 35 112
e 35 113
e 35 114
e 35 117
e 35 118
e 35 119
e 35 121
e 35 123
e 35 124
e 35 125
e 35 126
e 35 127
e 35 129
e 35 137
e 35 138
e 35 139
e 35 144
e 35 145
e 35 147
e 35 151
e 35 152
e 35 155
e 35 160
e 35 161
e 36 37
e 36 38
e 36 39
e 36 40
e 36 41
e 36 42
e 36 43
e 36 44
e 36 45
e 36 46
e 36 47
e 36 48
e 36 49
e 36 50
e 36 51
e 36 53
e 36 54
e 36 55
e 36 56
e 36 57
e 36 58
e 36 59
e 36 60
e 36 61
e 36 63
e 36 64
e 36 65
e 36 67
e 36 68
e 36 69
e 36 70
e 36 71
e 36 72
e 36 73
e 36 74
e 36 79
e 36 80
e 36 82
e 36 83
e 36 85
e 36 87
e 36 89
e 36 91
e 36 92
e 36 93
e 36 94
e 36 95
e 36 96
e 36 97
e 36 98
e 36 99
e 36 102
e 36 104
e 36 107
e 36 108
e 36 109
e 36 110
e 36 111
e 36 112
e 36 113
e 36 116
e 36 117
e 36 123
e 36 124
e 36 126
e 36 127
e 36 128
e 36 131
e 36 134
e 36 135
e 36 137
e 36 139
e 36 143
e 36 144
e 36 146
e 36 147
e 36 152
e 36 153
e 36 154
e 36 155
e 36 157
e 36 159
e 36 160
e 36 162
e 37 38
e 37 39
e 37 40
e 37 41
e 37 42
e 37 43
e 37 44
e 37 45
e 37 46
e 37 47
e 37 48
e 37 49
e 37 50
e 37 51
e 37 52
e 37 53
e 37 54
e 37 55
e 37 58
e 37 59
e 37 60
e 37 61
e 37 62
e 37 63
e 37 65
e 37 66
e 37 68
e 37 69
e 37 70
e 37 71
e 37 72
e 37 73
e 37 74
e 37 78
e 37 80
e 37 81
e 37 83
e 37 85
e 37 88
e 37 89
e 37 91
e 37 92
e 37 93
e 37 96
e 37 97
e 37 99
e 37 100
e 37 101
e 37 102
e 37 103
e 37 104
e 37 105
e 37 106
e 37 108
e 37 112
e 37 113
e 37 115
e 37 117
e 37 118
e 37 119
e 37 121
e 37 123
e 37 125
e 37 129
e 37 130
e 37 132
e 37 134
e 37 135
e 37 136
e 37 138
e 37 139
e 37 141
e 37 144
e 37 145
e 37 149
e 37 153
e 37 155
e 37 156
e 37 160
e 37 162
e 37 163
e 37 164
e 38 39
e 38 40
e 38 41
e 38 42
e 38 43
e 38 44
e 38 45
e 38 46
e 38 47
e 38 48
e 38 49
e 38 50
e 38 51
e 38 52
e 38 53
e 38 54
e 38 55
e 38 58
e 38 59
e 38 60
e 38 61
e 38 63
e 38 64
e 38 65
e 38 66
e 38 67
e 38 68
e 38 69
e 38 71
e 38 72
e 38 73
e 38 75
e 38 78
e 38 81
e 38 82
e 38 84
e 38 86
e 38 87
e 38 88
e 38 89
e 38 92
e 38 93
e 38 95
e 38 97
e 38 98
e 38 99
e 38 100
e 38 101
e 38 102
e 38 107
e 38 108
e 38 110
e 38 112
e 38 113
e 38 114
e 38 115
e 38 117
e 38 121
e 38 122
e 38 123
e 38 124
e 38 125
e 38 126
e 38 127
e 38 128
e 38 129
e 38 130
e 38 135
e 38 139
e 38 140
e 38 149
e 38 151
e 38 157
e 38 159
e 39 40
e 39 41
e 39 42
e 39 43
e 39 44
e 39 45
e 39 46
e 39 47
e 39 48
e 39 49
e 39 50
e 39 51
e 39 52
e 39 53
e 39 54
e 39 55
e 39 56
e 39 57
e 39 58
e 39 59
e 39 61
e 39 62
e 39 64
e 39 65
e 39 66
e 39 67
e 39 70
e 39 72
e 39 73
e 39 74
e 39 76
e 39 77
e 39 81
e 39 82
e 39 83
e 39 86
e 39 88
e 39 89
e 39 90
e 39 91
e 39 92
e 39 93
e 39 95
e 39 99
e 39 100
e 39 104
e 39 107
e 39 114
e 39 116
e 39 118
e 39 123
e 39 125
e 39 128
e 39 130
e 39 131
e 39 133
e 39 135
e 39 136
e 39 137
e 39 140
e 39 142
e 39 150
e 39 154
e 39 158
e 39 159
e 39 161
e 40 41
e 40 42
e 40 43
e 40 44
e 40 45
e 40 46
e 40 47
e 40 48
e 40 49
e 40 50
e 40 51
e 40 53
e 40 54
e 40 55
e 40 56
e 40 57
e 40 58
e 40 59
e 40 60
e 40 62
e 40 63
e 40 64
e 40 69
e 40 70
e 40 71
e 40 73
e 40 74
e 40 75
e 40 76
e 40 77
e 40 78
e 40 79
e 40 80
e 40 81
e 40 82
e 40 83
e 40 84
e 40 85
e 40 86
e 40 87
e 40 88
e 40 92
e 40 93
e 40 94
e 40 95
e 40 97
e 40 100
e 40 101
e 40 102
e 40 103
e 40 104
e 40 105
e 40 106
e 40 107
e 40 112
e 40 113
e 40 114
e 40 115
e 40 116
e 40 117
e 40 124
e 40 126
e 40 127
e 40 129
e 40 132
e 40 133
e 40 135
e 40 138
e 40 139
e 40 140
e 40 142
e 40 146
e 40 148
e 40 152
e 40 155
e 40 161
e 41 42
e 41 43
e 41 44
e 41 45
e 41 46
e 41 47
e 41 49
e 41 50
e 41 51
e 41 52
e 41 53
e 41 55
e 41 56
e 41 57
e 41 58
e 41 59
e 41 60
e 41 61
e 41 62
e 41 64
e 41 65
e 41 68
e 41 69
e 41 70
e 41 71
e 41 72
e 41 74
e 41 75
e 41 76
e 41 77
e 41 78
e 41 79
e 41 81
e 41 83
e 41 84
e 41 87
e 41 88
e 41 91
e 41 93
e 41 94
e 41 95
e 41 98
e 41 99
e 41 102
e 41 104
e 41 106
e 41 107
e 41 112
e 41 113
e 41 115
e 41 116
e 41 120
e 41 123
e 41 124
e 41 126
e 41 128
e 41 131
e 41 136
e 41 137
e 41 138
e 41 139
e 41 147
e 41 150
e 41 151
e 41 154
e 41 156
e 41 157
e 41 158
e 41 160
e 42 43
e 42 44
e 42 45
e 42 46
e 42 47
e 42 48
e 42 49
e 42 51
e 42 53
e 42 54
e 42 55
e 42 56
e 42 57
e 42 58
e 42 59
e 42 60
e 42 62
e 42 63
e 42 64
e 42 66
e 42 67
e 42 68
e 42 69
e 42 71
e 42 73
e 42 75
e 42 77
e 42 78
e 42 79
e 42 80
e 42 82
e 42 84
e 42 85
e 42 90
e 42 97
e 42 98
e 42 99
e 42 101
e 42 103
e 42 105
e 42 106
e 42 108
e 42 110
e 42 112
e 42 115
e 42 116
e 42 119
e 42 120
e 42 123
e 42 132
e 42 133
e 42 134
e 42 136
e 42 137
e 42 141
e 42 142
e 42 145
e 42 147
e 42 148
e 42 149
e 42 156
e 42 158
e 42 159
e 42 160
e 42 161
e 42 162
e 42 163
e 42 165
e 43 44
e 43 45
e 43 46
e 43 47
e 43 48
e 43 49
e 43 50
e 43 51
e 43 52
e 43 53
e 43 54
e 43 55
e 43 56
e 43 57
e 43 58
e 43 59
e 43 60
e 43 61
e 43 63
e 43 64
e 43 65
e 43 68
e 43 69
e 43 70
e 43 72
e 43 75
e 43 76
e 43 77
e 43 79
e 43 80
e 43 81
e 43 86
e 43 88
e 43 89
e 43 91
e 43 92
e 43 94
e 43 95
e 43 97
e 43 98
e 43 103
e 43 104
e 43 109
e 43 115
e 43 116
e 43 118
e 43 119
e 43 120
e 43 123
e 43 124
e 43 128
e 43 132
e 43 133
e 43 136
e 43 139
e 43 140
e 43 141
e 43 149
e 43 152
e 43 153
e 43 157
e 43 158
e 43 161
e 44 45
e 44 46
e 44 47
e 44 48
e 44 49
e 44 50
e 44 51
e 44 52
e 44 54
e 44 55
e 44 56
e 44 57
e 44 58
e 44 61
e 44 62
e 44 63
e 44 64
e 44 65
e 44 66
e 44 67
e 44 68
e 44 69
e 44 70
e 44 71
e 44 72
e 44 75
e 44 76
e 44 77
e 44 78
e 44 79
e 44 81
e 44 82
e 44 84
e 44 86
e 44 87
e 44 88
e 44 89
e 44 90
e 44 91
e 44 92
e 44 93
e 44 95
e 44 97
e 44 98
e 44 100
e 44 101
e 44 103
e 44 106
e 44 109
e 44 111
e 44 112
e 44 113
e 44 119
e 44 121
e 44 123
e 44 124
e 44 127
e 44 131
e 44 136
e 44 137
e 44 140
e 44 142
e 44 143
e 44 145
e 44 146
e 44 147
e 44 149
e 44 150
e 44 165
e 45 46
e 45 47
e 45 48
e 45 49
e 45 50
e 45 51
e 45 52
e 45 53
e 45 54
e 45 55
e 45 56
e 45 57
e 45 58
e 45 60
e 45 62
e 45 63
e 45 64
e 45 65
e 45 66
e 45 70
e 45 72
e 45 73
e 45 75
e 45 76
e 45 77
e 45 78
e 45 79
e 45 80
e 45 82
e 45 83
e 45 84
e 45 85
e 45 87
e 45 88
e 45 89
e 45 90
e 45 91
e 45 92
e 45 95
e 45 96
e 45 97
e 45 98
e 45 99
e 45 101
e 45 104
e 45 105
e 45 109
e 45 110
e 45 112
e 45 117
e 45 119
e 45 125
e 45 127
e 45 130
e 45 132
e 45 133
e 45 134
e 45 135
e 45 136
e 45 138
e 45 141
e 45 143
e 45 144
e 45 146
e 45 147
e 45 155
e 45 157
e 45 161
e 45 164
e 46 47
e 46 48
e 46 49
e 46 51
e 46 52
e 46 53
e 46 54
e 46 55
e 46 56
e 46 61
e 46 62
e 46 64
e 46 65
e 46 66
e 46 67
e 46 72
e 46 74
e 46 75
e 46 76
e 46 77
e 46 78
e 46 79
e 46 82
e 46 84
e 46 86
e 46 87
e 46 90
e 46 92
e 46 93
e 46 95
e 46 96
e 46 98
e 46 100
e 46 107
e 46 110
e 46 111
e 46 113
e 46 115
e 46 122
e 46 125
e 46 129
e 46 132
e 46 137
e 46 140
e 46 142
e 46 144
e 46 145
e 46 146
e 46 150
e 46 154
e 46 161
e 46 165
e 47 48
e 47 49
e 47 50
e 47 51
e 47 52
e 47 53
e 47 54
e 47 55
e 47 56
e 47 57
e 47 59
e 47 60
e 47 61
e 47 62
e 47 63
e 47 66
e 47 67
e 47 68
e 47 69
e 47 73
e 47 74
e 47 76
e 47 78
e 47 79
e 47 81
e 47 83
e 47 85
e 47 86
e 47 87
e 47 88
e 47 89
e 47 91
e 47 93
e 47 95
e 47 97
e 47 100
e 47 102
e 47 103
e 47 105
e 47 107
e 47 109
e 47 112
e 47 117
e 47 119
e 47 124
e 47 127
e 47 130
e 47 136
e 47 137
e 47 138
e 47 140
e 47 141
e 47 142
e 47 149
e 47 154
e 47 155
e 47 156
e 47 157
e 47 158
e 47 163
e 47 165
e 48 49
e 48 50
e 48 51
e 48 52
e 48 53
e 48 54
e 48 56
e 48 57
e 48 59
e 48 60
e 48 62
e 48 64
e 48 65
e 48 66
e 48 67
e 48 69
e 48 70
e 48 74
e 48 75
e 48 82
e 48 83
e 48 86
e 48 92
e 48 93
e 48 95
e 48 98
e 48 99
e 48 100
e 48 101
e 48 102
e 48 104
e 48 105
e 48 112
e 48 114
e 48 117
e 48 123
e 48 124
e 48 126
e 48 127
e 48 137
e 48 143
e 48 146
e 48 152
e 48 158
e 48 159
e 48 160
e 49 51
e 49 52
e 49 53
e 49 54
e 49 56
e 49 57
e 49 58
e 49 59
e 49 60
e 49 61
e 49 62
e 49 63
e 49 64
e 49 65
e 49 66
e 49 67
e 49 68
e 49 70
e 49 72
e 49 73
e 49 74
e 49 75
e 49 76
e 49 78
e 49 79
e 49 80
e 49 81
e 49 82
e 49 83
e 49 84
e 49 85
e 49 88
e 49 89
e 49 91
e 49 94
e 49 95
e 49 97
e 49 98
e 49 102
e 49 104
e 49 105
e 49 106
e 49 111
e 49 112
e 49 117
e 49 118
e 49 119
e 49 120
e 49 123
e 49 125
e 49 127
e 49 129
e 49 130
e 49 131
e 49 132
e 49 138
e 49 140
e 49 141
e 49 142
e 49 146
e 49 147
e 49 148
e 49 149
e 49 150
e 49 151
e 49 156
e 49 157
e 49 160
e 49 162
e 49 163
e 50 51
e 50 52
e 50 53
e 50 55
e 50 56
e 50 57
e 50 58
e 50 60
e 50 62
e 50 63
e 50 66
e 50 67
e 50 69
e 50 70
e 50 71
e 50 73
e 50 74
e 50 75
e 50 76
e 50 80
e 50 82
e 50 83
e 50 84
e 50 85
e 50 87
e 50 98
e 50 100
e 50 102
e 50 105
e 50 115
e 50 123
e 50 125
e 50 127
e 50 128
e 50 130
e 50 131
e 50 134
e 50 135
e 50 139
e 50 141
e 50 143
e 50 145
e 50 148
e 50 149
e 50 153
e 50 155
e 50 157
e 50 159
e 50 162
e 50 163
e 51 52
e 51 53
e 51 54
e 51 55
e 51 56
e 51 57
e 51 58
e 51 59
e 51 60
e 51 61
e 51 62
e 51 65
e 51 67
e 51 68
e 51 69
e 51 70
e 51 73
e 51 75
e 51 77
e 51 80
e 51 81
e 51 83
e 51 84
e 51 91
e 51 92
e 51 93
e 51 94
e 51 95
e 51 98
e 51 99
e 51 100
e 51 106
e 51 110
e 51 113
e 51 114
e 51 115
e 51 117
e 51 118
e 51 119
e 51 120
e 51 122
e 51 123
e 51 124
e 51 125
e 51 128
e 51 131
e 51 137
e 51 140
e 51 141
e 51 145
e 51 151
e 51 156
e 51 157
e 51 161
e 51 162
e 52 53
e 52 55
e 52 56
e 52 57
e 52 58
e 52 59
e 52 60
e 52 61
e 52 66
e 52 67
e 52 68
e 52 70
e 52 71
e 52 73
e 52 74
e 52 75
e 52 77
e 52 78
e 52 79
e 52 81
e 52 82
e 52 83
e 52 84
e 52 86
e 52 89
e 52 90
e 52 93
e 52 97
e 52 99
e 52 100
e 52 101
e 52 103
e 52 110
e 52 112
e 52 114
e 52 117
e 52 118
e 52 120
e 52 122
e 52 126
e 52 129
e 52 131
e 52 139
e 52 141
e 52 142
e 52 145
e 52 146
e 52 147
e 52 149
e 52 154
e 52 159
e 52 160
e 52 165
e 53 54
e 53 55
e 53 56
e 53 57
e 53 58
e 53 60
e 53 62
e 53 63
e 53 65
e 53 67
e 53 68
e 53 69
e 53 70
e 53 72
e 53 73
e 53 74
e 53 76
e 53 80
e 53 81
e 53 82
e 53 83
e 53 85
e 53 92
e 53 96
e 53 98
e 53 99
e 53 100
e 53 103
e 53 105
e 53 106
e 53 110
e 53 112
e 53 115
e 53 117
e 53 119
e 53 120
e 53 123
e 53 127
e 53 139
e 53 144
e 53 148
e 53 149
e 53 158
e 53 162
e 53 163
e 53 165
e 54 57
e 54 58
e 54 59
e 54 61
e 54 62
e 54 63
e 54 67
e 54 73
e 54 74
e 54 80
e 54 82
e 54 85
e 54 86
e 54 87
e 54 88
e 54 89
e 54 90
e 54 91
e 54 92
e 54 94
e 54 97
e 54 98
e 54 102
e 54 103
e 54 105
e 54 106
e 54 107
e 54 112
e 54 115
e 54 117
e 54 119
e 54 120
e 54 122
e 54 123
e 54 124
e 54 126
e 54 128
e 54 129
e 54 132
e 54 133
e 54 136
e 54 138
e 54 142
e 54 143
e 54 144
e 54 146
e 54 151
e 54 154
e 54 159
e 54 162
e 54 164
e 55 56
e 55 57
e 55 58
e 55 60
e 55 61
e 55 62
e 55 63
e 55 65
e 55 68
e 55 69
e 55 70
e 55 71
e 55 72
e 55 73
e 55 74
e 55 77
e 55 78
e 55 79
e 55 80
e 55 81
e 55 82
e 55 84
e 55 86
e 55 89
e 55 91
e 55 96
e 55 100
e 55 101
e 55 105
e 55 106
e 55 107
e 55 108
e 55 109
e 55 111
e 55 113
e 55 116
e 55 117
e 55 120
e 55 122
e 55 123
e 55 129
e 55 130
e 55 132
e 55 139
e 55 141
e 55 143
e 55 144
e 55 156
e 55 158
e 55 160
e 55 164
e 55 165
e 56 57
e 56 59
e 56 60
e 56 61
e 56 62
e 56 63
e 56 64
e 56 65
e 56 69
e 56 71
e 56 72
e 56 73
e 56 75
e 56 78
e 56 79
e 56 80
e 56 82
e 56 85
e 56 87
e 56 88
e 56 90
e 56 93
e 56 95
e 56 96
e 56 98
e 56 99
e 56 100
e 56 101
e 56 109
e 56 111
e 56 113
e 56 114
e 56 115
e 56 118
e 56 122
e 56 125
e 56 128
e 56 129
e 56 131
e 56 133
e 56 134
e 56 137
e 56 140
e 56 141
e 56 143
e 56 147
e 56 152
e 56 154
e 56 159
e 56 165
e 57 58
e 57 59
e 57 60
e 57 61
e 57 62
e 57 63
e 57 66
e 57 67
e 57 68
e 57 69
e 57 70
e 57 72
e 57 75
e 57 84
e 57 85
e 57 89
e 57 91
e 57 94
e 57 95
e 57 98
e 57 99
e 57 102
e 57 103
e 57 104
e 57 107
e 57 110
e 57 113
e 57 115
e 57 117
e 57 118
e 57 119
e 57 120
e 57 122
e 57 124
e 57 135
e 57 140
e 57 142
e 57 143
e 57 145
e 57 147
e 57 152
e 57 154
e 57 155
e 57 165
e 58 59
e 58 61
e 58 63
e 58 64
e 58 65
e 58 66
e 58 68
e 58 69
e 58 71
e 58 72
e 58 74
e 58 75
e 58 76
e 58 77
e 58 78
e 58 81
e 58 82
e 58 84
e 58 87
e 58 88
e 58 91
e 58 92
e 58 95
e 58 96
e 58 98
e 58 100
e 58 102
e 58 103
e 58 107
e 58 109
e 58 110
e 58 113
e 58 120
e 58 121
e 58 126
e 58 127
e 58 134
e 58 135
e 58 137
e 58 138
e 58 139
e 58 144
e 58 145
e 58 146
e 58 153
e 58 157
e 58 158
e 58 159
e 58 161
e 59 60
e 59 61
e 59 62
e 59 63
e 59 67
e 59 69
e 59 71
e 59 72
e 59 73
e 59 76
e 59 79
e 59 80
e 59 81
e 59 87
e 59 88
e 59 94
e 59 95
e 59 97
e 59 99
e 59 105
e 59 107
e 59 111
e 59 115
e 59 124
e 59 129
e 59 132
e 59 133
e 59 135
e 59 136
e 59 150
e 59 151
e 59 153
e 59 156
e 59 159
e 59 161
e 59 163
e 60 61
e 60 62
e 60 64
e 60 66
e 60 68
e 60 72
e 60 73
e 60 79
e 60 82
e 60 83
e 60 92
e 60 94
e 60 96
e 60 97
e 60 102
e 60 111
e 60 115
e 60 116
e 60 120
e 60 121
e 60 129
e 60 131
e 60 136
e 60 138
e 60 162
e 61 63
e 61 64
e 61 66
e 61 71
e 61 72
e 61 79
e 61 80
e 61 82
e 61 86
e 61 89
e 61 93
e 61 96
e 61 100
e 61 103
e 61 106
e 61 108
e 61 109
e 61 113
e 61 114
e 61 115
e 61 117
e 61 119
e 61 127
e 61 130
e 61 131
e 61 137
e 61 142
e 61 152
e 61 154
e 61 157
e 61 165
e 62 64
e 62 66
e 62 67
e 62 69
e 62 70
e 62 71
e 62 72
e 62 73
e 62 77
e 62 79
e 62 80
e 62 81
e 62 83
e 62 84
e 62 86
e 62 87
e 62 90
e 62 91
e 62 92
e 62 93
e 62 95
e 62 96
e 62 98
e 62 99
e 62 101
e 62 102
e 62 103
e 62 105
e 62 109
e 62 110
e 62 114
e 62 115
e 62 117
e 62 118
e 62 121
e 62 128
e 62 132
e 62 134
e 62 135
e 62 137
e 62 139
e 62 148
e 62 149
e 62 151
e 62 152
e 62 165
e 63 64
e 63 65
e 63 68
e 63 70
e 63 73
e 63 75
e 63 76
e 63 78
e 63 79
e 63 81
e 63 83
e 63 86
e 63 87
e 63 92
e 63 93
e 63 104
e 63 106
e 63 107
e 63 108
e 63 110
e 63 111
e 63 112
e 63 114
e 63 119
e 63 127
e 63 128
e 63 130
e 63 140
e 63 143
e 63 163
e 63 164
e 63 165
e 64 65
e 64 66
e 64 67
e 64 68
e 64 73
e 64 74
e 64 75
e 64 76
e 64 78
e 64 80
e 64 82
e 64 84
e 64 89
e 64 91
e 64 92
e 64 93
e 64 95
e 64 102
e 64 107
e 64 109
e 64 110
e 64 111
e 64 113
e 64 114
e 64 119
e 64 121
e 64 124
e 64 141
e 64 142
e 64 145
e 64 152
e 64 155
e 64 162
e 64 164
e 64 165
e 65 67
e 65 68
e 65 71
e 65 72
e 65 76
e 65 77
e 65 78
e 65 79
e 65 84
e 65 88
e 65 89
e 65 90
e 65 106
e 65 110
e 65 111
e 65 112
e 65 115
e 65 116
e 65 118
e 65 121
e 65 133
e 65 135
e 65 138
e 65 142
e 65 143
e 65 157
e 66 68
e 66 69
e 66 70
e 66 71
e 66 73
e 66 74
e 66 75
e 66 76
e 66 81
e 66 84
e 66 88
e 66 90
e 66 91
e 66 92
e 66 93
e 66 95
e 66 99
e 66 103
e 66 110
e 66 111
e 66 119
e 66 121
e 66 122
e 66 123
e 66 124
e 66 128
e 66 132
e 66 136
e 66 142
e 66 143
e 66 145
e 66 149
e 66 151
e 66 155
e 66 162
e 66 165
e 67 71
e 67 73
e 67 74
e 67 76
e 67 77
e 67 80
e 67 83
e 67 85
e 67 86
e 67 87
e 67 88
e 67 89
e 67 90
e 67 94
e 67 96
e 67 104
e 67 106
e 67 111
e 67 113
e 67 118
e 67 124
e 67 126
e 67 129
e 67 130
e 67 133
e 67 134
e 67 141
e 67 142
e 67 147
e 67 151
e 67 155
e 67 159
e 67 160
e 67 164
e 68 70
e 68 72
e 68 74
e 68 78
e 68 81
e 68 83
e 68 84
e 68 87
e 68 88
e 68 90
e 68 93
e 68 96
e 68 97
e 68 99
e 68 100
e 68 103
e 68 108
e 68 111
e 68 120
e 68 121
e 68 124
e 68 125
e 68 129
e 68 132
e 68 133
e 68 134
e 68 136
e 68 138
e 68 140
e 68 141
e 68 142
e 68 146
e 68 150
e 68 151
e 68 154
e 68 155
e 69 75
e 69 76
e 69 78
e 69 79
e 69 89
e 69 90
e 69 94
e 69 100
e 69 102
e 69 103
e 69 104
e 69 105
e 69 107
e 69 119
e 69 123
e 69 132
e 69 135
e 69 136
e 69 140
e 69 142
e 69 145
e 69 147
e 69 148
e 69 157
e 69 158
e 69 160
e 69 162
e 69 164
e 70 71
e 70 72
e 70 74
e 70 75
e 70 76
e 70 77
e 70 78
e 70 79
e 70 87
e 70 93
e 70 94
e 70 96
e 70 97
e 70 102
e 70 105
e 70 109
e 70 110
e 70 119
e 70 122
e 70 126
e 70 129
e 70 131
e 70 132
e 70 133
e 70 147
e 71 72
e 71 78
e 71 81
e 71 84
e 71 87
e 71 88
e 71 90
e 71 91
e 71 96
e 71 101
e 71 103
e 71 105
e 71 107
e 71 108
e 71 111
e 71 113
e 71 114
e 71 119
e 71 121
e 71 122
e 71 125
e 71 128
e 71 132
e 71 134
e 71 140
e 71 141
e 71 143
e 71 144
e 71 145
e 71 149
e 71 154
e 71 163
e 72 74
e 72 75
e 72 76
e 72 77
e 72 81
e 72 83
e 72 84
e 72 85
e 72 90
e 72 91
e 72 98
e 72 99
e 72 101
e 72 107
e 72 112
e 72 118
e 72 122
e 72 123
e 72 125
e 72 126
e 72 131
e 72 134
e 72 136
e 72 141
e 72 143
e 72 146
e 72 148
e 72 155
e 72 161
e 73 77
e 73 78
e 73 79
e 73 80
e 73 81
e 73 86
e 73 88
e 73 89
e 73 94
e 73 96
e 73 97
e 73 100
e 73 101
e 73 102
e 73 103
e 73 108
e 73 109
e 73 110
e 73 113
e 73 114
e 73 117
e 73 123
e 73 131
e 73 133
e 73 135
e 73 137
e 73 140
e 73 143
e 73 145
e 73 150
e 73 151
e 73 157
e 73 160
e 73 161
e 73 162
e 73 164
e 73 165
e 74 76
e 74 81
e 74 87
e 74 88
e 74 89
e 74 90
e 74 92
e 74 98
e 74 101
e 74 103
e 74 104
e 74 108
e 74 109
e 74 110
e 74 111
e 74 127
e 74 128
e 74 129
e 74 131
e 74 140
e 74 141
e 74 146
e 74 149
e 74 153
e 74 157
e 74 160
e 75 77
e 75 78
e 75 79
e 75 80
e 75 83
e 75 86
e 75 90
e 75 91
e 75 93
e 75 96
e 75 101
e 75 103
e 75 104
e 75 105
e 75 106
e 75 107
e 75 114
e 75 119
e 75 120
e 75 127
e 75 129
e 75 130
e 75 137
e 75 139
e 75 150
e 75 151
e 75 153
e 75 162
e 76 77
e 76 79
e 76 85
e 76 86
e 76 89
e 76 91
e 76 92
e 76 100
e 76 101
e 76 103
e 76 105
e 76 111
e 76 112
e 76 116
e 76 118
e 76 119
e 76 121
e 76 122
e 76 127
e 76 129
e 76 130
e 76 131
e 76 133
e 76 134
e 76 137
e 76 141
e 76 147
e 76 153
e 76 159
e 76 163
e 76 164
e 77 78
e 77 79
e 77 80
e 77 81
e 77 85
e 77 86
e 77 87
e 77 91
e 77 96
e 77 99
e 77 106
e 77 107
e 77 116
e 77 117
e 77 118
e 77 119
e 77 120
e 77 127
e 77 128
e 77 130
e 77 134
e 77 136
e 77 141
e 77 143
e 77 145
e 77 147
e 77 150
e 77 152
e 77 158
e 77 161
e 77 162
e 78 79
e 78 83
e 78 84
e 78 85
e 78 87
e 78 89
e 78 91
e 78 93
e 78 95
e 78 96
e 78 101
e 78 105
e 78 106
e 78 109
e 78 114
e 78 117
e 78 123
e 78 129
e 78 138
e 78 154
e 78 156
e 78 158
e 78 161
e 78 165
e 79 81
e 79 82
e 79 84
e 79 85
e 79 88
e 79 90
e 79 93
e 79 97
e 79 104
e 79 106
e 79 109
e 79 111
e 79 115
e 79 116
e 79 118
e 79 129
e 79 131
e 79 134
e 79 142
e 79 143
e 79 147
e 79 148
e 79 150
e 79 151
e 79 155
e 79 159
e 80 82
e 80 83
e 80 87
e 80 101
e 80 108
e 80 121
e 80 125
e 80 128
e 80 130
e 80 133
e 80 139
e 80 140
e 80 141
e 80 144
e 80 146
e 80 148
e 80 153
e 80 158
e 80 161
e 80 164
e 81 84
e 81 85
e 81 90
e 81 94
e 81 98
e 81 100
e 81 104
e 81 108
e 81 123
e 81 129
e 81 135
e 81 140
e 81 146
e 81 149
e 82 84
e 82 86
e 82 87
e 82 88
e 82 89
e 82 92
e 82 94
e 82 97
e 82 104
e 82 105
e 82 110
e 82 111
e 82 114
e 82 115
e 82 116
e 82 122
e 82 124
e 82 125
e 82 126
e 82 127
e 82 129
e 82 130
e 82 132
e 82 133
e 82 135
e 82 137
e 82 138
e 82 139
e 82 142
e 82 150
e 82 162
e 83 84
e 83 87
e 83 89
e 83 90
e 83 92
e 83 93
e 83 94
e 83 97
e 83 98
e 83 104
e 83 112
e 83 116
e 83 124
e 83 126
e 83 132
e 83 133
e 83 153
e 83 159
e 83 160
e 83 161
e 83 162
e 84 88
e 84 92
e 84 94
e 84 96
e 84 101
e 84 106
e 84 110
e 84 113
e 84 116
e 84 118
e 84 120
e 84 122
e 84 129
e 84 130
e 84 133
e 84 149
e 84 158
e 84 163
e 85 86
e 85 87
e 85 93
e 85 96
e 85 100
e 85 101
e 85 106
e 85 108
e 85 112
e 85 113
e 85 121
e 85 124
e 85 127
e 85 129
e 85 130
e 85 134
e 85 137
e 85 146
e 85 151
e 85 159
e 85 163
e 85 164
e 86 92
e 86 93
e 86 94
e 86 95
e 86 103
e 86 107
e 86 110
e 86 112
e 86 114
e 86 120
e 86 121
e 86 124
e 86 126
e 86 128
e 86 132
e 86 137
e 86 146
e 86 149
e 86 152
e 86 154
e 86 155
e 86 157
e 86 160
e 87 91
e 87 95
e 87 96
e 87 97
e 87 98
e 87 110
e 87 113
e 87 118
e 87 121
e 87 127
e 87 135
e 87 146
e 87 154
e 87 161
e 87 163
e 87 164
e 88 90
e 88 92
e 88 93
e 88 96
e 88 100
e 88 101
e 88 103
e 88 106
e 88 112
e 88 114
e 88 115
e 88 116
e 88 125
e 88 136
e 88 142
e 88 146
e 88 155
e 88 156
e 88 157
e 88 158
e 88 159
e 88 160
e 88 162
e 89 92
e 89 97
e 89 110
e 89 111
e 89 116
e 89 121
e 89 125
e 89 127
e 89 138
e 89 141
e 89 148
e 89 151
e 89 152
e 89 153
e 89 161
e 90 92
e 90 100
e 90 102
e 90 106
e 90 108
e 90 111
e 90 117
e 90 123
e 90 125
e 90 132
e 90 133
e 90 135
e 90 138
e 90 146
e 90 150
e 90 158
e 90 160
e 91 92
e 91 98
e 91 103
e 91 105
e 91 109
e 91 112
e 91 121
e 91 122
e 91 123
e 91 128
e 91 129
e 91 135
e 91 138
e 91 141
e 91 143
e 91 144
e 91 157
e 91 158
e 91 165
e 92 94
e 92 95
e 92 96
e 92 106
e 92 108
e 92 109
e 92 114
e 92 116
e 92 117
e 92 119
e 92 122
e 92 123
e 92 124
e 92 135
e 92 150
e 92 153
e 93 95
e 93 97
e 93 105
e 93 106
e 93 111
e 93 119
e 93 121
e 93 122
e 93 126
e 93 129
e 93 132
e 93 135
e 93 137
e 93 138
e 93 140
e 93 144
e 93 153
e 93 155
e 93 163
e 94 95
e 94 96
e 94 106
e 94 107
e 94 109
e 94 111
e 94 125
e 94 126
e 94 137
e 94 142
e 94 146
e 94 150
e 94 162
e 95 97
e 95 101
e 95 105
e 95 108
e 95 117
e 95 119
e 95 120
e 95 133
e 95 137
e 95 140
e 95 141
e 95 143
e 95 145
e 95 148
e 95 153
e 96 98
e 96 100
e 96 102
e 96 103
e 96 108
e 96 110
e 96 115
e 96 117
e 96 118
e 96 120
e 96 127
e 96 131
e 96 133
e 96 136
e 96 144
e 96 150
e 96 154
e 97 98
e 97 99
e 97 100
e 97 101
e 97 104
e 97 108
e 97 116
e 97 120
e 97 121
e 97 124
e 97 126
e 97 132
e 97 135
e 97 137
e 97 138
e 97 140
e 97 143
e 97 145
e 97 146
e 97 157
e 97 162
e 97 165
e 98 104
e 98 105
e 98 106
e 98 107
e 98 118
e 98 128
e 98 130
e 98 132
e 98 135
e 98 142
e 98 149
e 98 151
e 98 163
e 99 117
e 99 133
e 99 134
e 99 136
e 99 158
e 99 163
e 100 105
e 100 106
e 100 107
e 100 108
e 100 109
e 100 118
e 100 126
e 100 130
e 100 135
e 100 136
e 100 139
e 100 143
e 100 146
e 100 147
e 100 150
e 100 152
e 100 156
e 100 163
e 100 164
e 101 102
e 101 106
e 101 113
e 101 118
e 101 123
e 101 126
e 101 130
e 101 147
e 101 148
e 101 153
e 101 164
e 102 104
e 102 107
e 102 109
e 102 112
e 102 113
e 102 114
e 102 115
e 102 129
e 102 131
e 102 136
e 102 138
e 102 148
e 102 149
e 102 150
e 102 153
e 102 156
e 102 157
e 102 158
e 103 108
e 103 112
e 103 122
e 103 133
e 103 142
e 103 146
e 103 151
e 103 152
e 103 154
e 103 165
e 104 114
e 104 132
e 104 134
e 104 138
e 104 140
e 104 142
e 104 150
e 104 151
e 105 109
e 105 114
e 105 116
e 105 119
e 105 120
e 105 124
e 105 128
e 105 132
e 105 133
e 105 138
e 105 141
e 105 144
e 105 147
e 105 150
e 105 157
e 105 158
e 105 164
e 106 116
e 106 117
e 106 141
e 106 144
e 106 148
e 106 153
e 106 156
e 106 160
e 107 113
e 107 115
e 107 123
e 107 125
e 107 127
e 107 128
e 107 132
e 107 134
e 107 136
e 107 138
e 107 140
e 107 145
e 107 147
e 107 148
e 107 157
e 108 111
e 108 120
e 108 121
e 108 125
e 108 126
e 108 134
e 108 136
e 108 140
e 108 145
e 108 147
e 108 149
e 108 151
e 108 162
e 109 112
e 109 120
e 109 125
e 109 127
e 109 130
e 109 131
e 109 147
e 109 151
e 109 157
e 109 159
e 110 112
e 110 113
e 110 115
e 110 116
e 110 117
e 110 121
e 110 122
e 110 126
e 110 131
e 110 135
e 110 139
e 110 143
e 110 153
e 110 154
e 110 160
e 110 163
e 111 113
e 111 114
e 111 116
e 111 118
e 111 121
e 111 122
e 111 123
e 111 124
e 111 128
e 111 139
e 111 142
e 111 148
e 111 151
e 111 153
e 111 159
e 111 164
e 111 165
e 112 116
e 112 130
e 112 131
e 112 139
e 112 140
e 112 143
e 112 145
e 112 150
e 112 152
e 112 154
e 112 156
e 112 159
e 112 160
e 113 114
e 113 124
e 113 128
e 113 132
e 113 134
e 113 136
e 113 139
e 113 147
e 113 150
e 113 151
e 113 156
e 113 157
e 114 125
e 114 127
e 114 131
e 114 134
e 114 135
e 114 136
e 114 142
e 114 143
e 114 148
e 114 150
e 114 152
e 114 158
e 114 159
e 114 161
e 114 162
e 115 120
e 115 130
e 115 143
e 115 144
e 115 153
e 115 161
e 116 118
e 116 156
e 116 164
e 117 123
e 117 125
e 117 127
e 117 131
e 117 146
e 117 147
e 117 158
e 118 119
e 118 121
e 118 122
e 118 130
e 118 131
e 118 133
e 118 138
e 118 139
e 118 142
e 118 143
e 118 144
e 118 152
e 118 153
e 118 154
e 118 158
e 118 160
e 118 163
e 118 164
e 119 121
e 119 122
e 119 124
e 119 129
e 119 138
e 119 139
e 119 157
e 119 163
e 120 121
e 120 127
e 120 128
e 120 134
e 120 136
e 120 138
e 120 150
e 120 152
e 120 155
e 120 159
e 120 160
e 121 125
e 121 131
e 121 134
e 121 139
e 121 141
e 121 159
e 122 130
e 122 133
e 122 137
e 122 141
e 122 153
e 122 155
e 122 165
e 123 125
e 123 127
e 123 130
e 123 137
e 123 148
e 123 155
e 123 159
e 123 161
e 123 164
e 124 126
e 124 130
e 124 131
e 124 139
e 124 142
e 124 147
e 124 150
e 124 152
e 124 153
e 124 155
e 124 156
e 124 160
e 124 165
e 125 130
e 125 133
e 125 134
e 125 146
e 125 150
e 125 152
e 125 163
e 126 127
e 126 128
e 126 132
e 126 135
e 126 144
e 126 148
e 126 150
e 126 152
e 127 143
e 127 144
e 127 165
e 128 139
e 128 140
e 128 151
e 128 152
e 128 160
e 128 163
e 129 132
e 129 134
e 129 148
e 129 149
e 129 151
e 129 160
e 129 165
e 130 131
e 130 132
e 130 135
e 130 144
e 130 145
e 130 149
e 130 153
e 130 156
e 130 163
e 131 133
e 131 143
e 131 148
e 131 159
e 131 161
e 132 138
e 132 140
e 132 145
e 132 149
e 132 156
e 132 158
e 132 160
e 133 136
e 133 139
e 133 140
e 133 152
e 133 161
e 133 162
e 134 141
e 134 145
e 134 147
e 134 151
e 134 152
e 134 156
e 134 159
e 134 162
e 135 144
e 135 151
e 135 153
e 135 154
e 135 155
e 135 163
e 135 165
e 136 138
e 136 140
e 136 145
e 136 154
e 137 144
e 137 146
e 137 148
e 137 154
e 137 155
e 137 158
e 138 139
e 138 142
e 138 154
e 139 146
e 139 159
e 139 160
e 139 162
e 140 145
e 140 148
e 140 149
e 140 152
e 140 154
e 140 156
e 140 158
e 140 164
e 141 142
e 141 149
e 141 151
e 141 153
e 141 164
e 142 156
e 142 158
e 142 163
e 143 145
e 143 151
e 143 161
e 144 150
e 144 162
e 145 147
e 145 149
e 145 156
e 145 161
e 146 147
e 146 157
e 146 163
e 147 155
e 147 163
e 148 151
e 148 156
e 149 157
e 149 158
e 149 159
e 149 161
e 149 162
e 150 155
e 151 162
e 151 163
e 152 154
e 152 158
e 152 160
e 152 164
e 153 154
e 153 161
e 154 162
e 156 161
e 156 162
e 160 165
e 163 164
